knapPI_15_20_1000_1
n 20
c 994
z 999
time 0.00
1,96,94,1
2,507,506,0
3,417,416,0
4,993,992,0
5,651,649,0
6,237,237,0
7,459,457,0
8,816,815,0
9,447,446,0
10,423,422,0
11,792,791,0
12,360,359,0
13,669,667,0
14,600,598,0
15,9,7,1
16,546,544,0
17,336,334,0
18,768,766,0
19,996,994,0
20,894,893,1
-----

knapPI_15_20_1000_2
n 20
c 946
z 948
time 0.00
1,948,946,1
2,819,819,0
3,420,420,0
4,801,800,0
5,408,406,0
6,942,941,0
7,72,70,0
8,561,560,0
9,795,795,0
10,585,583,0
11,597,595,0
12,696,695,0
13,465,463,0
14,744,742,0
15,171,171,0
16,354,352,0
17,858,858,0
18,183,182,0
19,888,887,0
20,606,606,0
-----

knapPI_15_20_1000_3
n 20
c 998
z 1002
time 0.00
1,447,447,0
2,483,483,0
3,426,425,0
4,609,609,0
5,516,514,0
6,999,998,0
7,36,34,1
8,306,304,0
9,495,495,0
10,744,743,0
11,402,400,0
12,33,32,0
13,612,612,0
14,537,535,1
15,336,336,0
16,810,809,0
17,735,735,0
18,600,599,0
19,429,427,1
20,966,966,0
-----

knapPI_15_20_1000_4
n 20
c 999
z 1002
time 0.00
1,300,299,0
2,798,796,0
3,429,429,0
4,66,65,0
5,624,623,0
6,702,702,0
7,999,999,0
8,402,401,0
9,198,196,0
10,906,904,0
11,204,204,0
12,720,720,0
13,408,408,0
14,327,327,0
15,150,148,0
16,618,617,0
17,612,611,0
18,15,15,0
19,321,320,1
20,681,679,1
-----

knapPI_15_20_1000_5
n 20
c 963
z 969
time 0.00
1,153,152,1
2,462,460,1
3,435,434,0
4,876,874,0
5,381,379,0
6,408,407,0
7,963,963,0
8,147,145,1
9,546,544,0
10,66,64,0
11,9,9,0
12,57,57,0
13,207,205,1
14,474,472,0
15,315,313,0
16,426,426,0
17,489,488,0
18,432,432,0
19,213,212,0
20,39,39,0
-----

knapPI_15_20_1000_6
n 20
c 928
z 930
time 0.00
1,654,652,0
2,774,773,0
3,792,790,0
4,684,682,1
5,489,488,0
6,111,111,0
7,930,928,0
8,243,242,0
9,246,245,1
10,225,225,0
11,813,813,0
12,393,393,0
13,354,353,0
14,264,264,0
15,477,477,0
16,234,234,0
17,366,364,0
18,849,848,0
19,753,753,0
20,753,752,0
-----

knapPI_15_20_1000_7
n 20
c 986
z 990
time 0.00
1,507,505,0
2,438,437,1
3,795,795,0
4,141,139,1
5,597,596,0
6,816,816,0
7,540,540,0
8,987,986,0
9,945,945,0
10,387,385,0
11,618,618,0
12,732,730,0
13,150,150,0
14,411,409,1
15,291,290,0
16,693,691,0
17,243,241,0
18,267,265,0
19,645,645,0
20,114,112,0
-----

knapPI_15_20_1000_8
n 20
c 947
z 948
time 0.00
1,357,357,0
2,750,750,0
3,801,799,0
4,948,947,1
5,354,353,0
6,873,872,0
7,507,505,0
8,732,731,0
9,294,294,0
10,546,546,0
11,423,422,0
12,66,66,0
13,300,298,0
14,201,201,0
15,456,454,0
16,501,499,0
17,117,117,0
18,681,681,0
19,186,186,0
20,825,825,0
-----

knapPI_15_20_1000_9
n 20
c 994
z 996
time 0.00
1,210,210,1
2,414,414,0
3,804,804,0
4,405,404,1
5,462,461,0
6,579,577,0
7,471,469,0
8,828,827,0
9,996,994,0
10,708,706,0
11,579,579,0
12,756,755,0
13,96,95,1
14,348,346,0
15,621,619,0
16,309,308,0
17,996,994,0
18,99,98,1
19,78,78,0
20,186,185,1
-----

knapPI_15_20_1000_10
n 20
c 1002
z 1008
time 0.00
1,711,710,0
2,729,727,0
3,810,808,0
4,213,212,0
5,219,218,0
6,282,281,1
7,435,434,0
8,573,572,0
9,345,343,0
10,867,867,0
11,384,383,0
12,93,91,1
13,891,891,0
14,138,138,0
15,432,431,0
16,117,116,1
17,519,518,0
18,516,514,1
19,972,971,0
20,900,898,0
-----

knapPI_15_20_1000_11
n 20
c 986
z 993
time 0.00
1,564,563,0
2,39,39,0
3,165,165,0
4,21,21,0
5,327,326,0
6,987,986,0
7,399,398,1
8,318,316,1
9,45,43,1
10,27,27,0
11,189,188,1
12,429,428,0
13,42,40,1
14,933,931,0
15,597,596,0
16,927,925,0
17,396,395,0
18,933,931,0
19,513,511,0
20,258,258,0
-----

knapPI_15_20_1000_12
n 20
c 1151
z 1155
time 0.00
1,417,415,0
2,705,704,0
3,171,169,1
4,477,477,0
5,435,435,0
6,690,690,0
7,12,11,1
8,414,413,0
9,744,744,0
10,189,188,0
11,993,992,0
12,765,764,0
13,837,836,0
14,75,75,0
15,408,408,0
16,381,381,0
17,273,271,0
18,348,347,0
19,405,404,0
20,972,971,1
-----

knapPI_15_20_1000_13
n 20
c 1190
z 1200
time 0.00
1,918,916,0
2,18,16,1
3,174,174,0
4,288,286,1
5,192,191,0
6,747,747,0
7,975,975,0
8,159,157,1
9,93,92,1
10,348,348,1
11,798,797,0
12,102,101,1
13,633,633,0
14,870,868,0
15,573,573,0
16,192,190,1
17,150,148,0
18,765,764,0
19,945,944,0
20,333,331,0
-----

knapPI_15_20_1000_14
n 20
c 1333
z 1341
time 0.00
1,768,768,0
2,681,681,0
3,180,178,1
4,96,94,1
5,300,300,1
6,453,451,1
7,942,940,0
8,255,254,1
9,795,793,0
10,510,509,0
11,603,601,0
12,438,437,0
13,783,781,0
14,12,12,1
15,738,737,0
16,999,998,0
17,24,24,0
18,180,180,0
19,837,837,0
20,45,44,1
-----

knapPI_15_20_1000_15
n 20
c 1816
z 1821
time 0.00
1,621,621,0
2,993,993,0
3,537,535,0
4,552,551,0
5,408,408,0
6,156,156,1
7,906,904,0
8,999,998,0
9,495,493,0
10,669,669,0
11,408,406,1
12,126,126,1
13,579,578,1
14,807,805,0
15,552,550,1
16,807,807,0
17,903,901,0
18,597,597,0
19,729,729,0
20,405,404,0
-----

knapPI_15_20_1000_16
n 20
c 1670
z 1674
time 0.00
1,474,473,1
2,660,658,1
3,540,539,1
4,360,359,0
5,165,165,0
6,861,860,0
7,870,869,0
8,744,743,0
9,843,842,0
10,183,182,0
11,210,210,0
12,462,462,0
13,726,726,0
14,951,949,0
15,714,714,0
16,615,615,0
17,777,777,0
18,15,13,0
19,270,270,0
20,117,117,0
-----

knapPI_15_20_1000_17
n 20
c 1868
z 1872
time 0.00
1,975,974,0
2,972,970,0
3,546,544,1
4,816,816,0
5,273,273,0
6,918,917,0
7,483,481,0
8,840,839,0
9,543,542,0
10,342,342,0
11,15,15,0
12,801,799,1
13,525,523,1
14,744,742,0
15,879,879,0
16,72,72,0
17,654,654,0
18,78,78,0
19,162,162,0
20,477,477,0
-----

knapPI_15_20_1000_18
n 20
c 1845
z 1848
time 0.00
1,828,826,0
2,636,635,0
3,549,548,0
4,624,624,0
5,30,30,0
6,621,621,0
7,447,446,1
8,585,584,0
9,243,243,0
10,504,503,1
11,819,819,0
12,135,135,0
13,321,319,0
14,534,534,0
15,693,691,0
16,882,880,0
17,531,530,0
18,495,494,0
19,705,703,1
20,192,190,1
-----

knapPI_15_20_1000_19
n 20
c 2129
z 2139
time 0.00
1,681,679,0
2,948,947,0
3,555,553,0
4,435,433,0
5,138,138,0
6,327,326,0
7,411,410,0
8,330,328,1
9,591,591,0
10,663,663,0
11,978,976,0
12,474,472,1
13,468,468,0
14,681,679,1
15,858,856,0
16,690,689,0
17,57,55,1
18,912,911,0
19,597,595,1
20,552,550,0
-----

knapPI_15_20_1000_20
n 20
c 1907
z 1914
time 0.00
1,180,179,1
2,612,612,0
3,909,909,0
4,891,889,0
5,249,247,1
6,30,30,0
7,375,375,0
8,426,425,0
9,294,292,0
10,825,824,1
11,780,780,0
12,162,160,1
13,264,264,0
14,471,471,0
15,21,20,0
16,498,497,1
17,933,931,0
18,327,327,0
19,489,488,0
20,912,911,0
-----

knapPI_15_20_1000_21
n 20
c 2264
z 2274
time 0.00
1,33,32,0
2,924,924,0
3,915,914,0
4,699,698,1
5,3,3,1
6,735,735,0
7,339,339,0
8,171,169,1
9,993,992,0
10,984,984,0
11,585,585,0
12,498,497,1
13,63,61,1
14,618,616,0
15,834,833,0
16,306,306,0
17,810,808,1
18,744,744,0
19,30,28,1
20,624,623,0
-----

knapPI_15_20_1000_22
n 20
c 2581
z 2589
time 0.00
1,885,884,0
2,591,589,0
3,918,918,0
4,507,506,1
5,114,112,1
6,792,791,1
7,954,952,0
8,267,266,1
9,342,341,0
10,147,145,1
11,390,389,1
12,834,833,0
13,210,209,1
14,408,408,0
15,999,997,0
16,762,762,0
17,684,684,0
18,162,160,1
19,921,921,0
20,984,984,0
-----

knapPI_15_20_1000_23
n 20
c 2222
z 2235
time 0.00
1,387,385,1
2,903,901,0
3,924,923,0
4,963,963,0
5,222,220,1
6,498,496,1
7,918,916,0
8,12,10,1
9,42,41,1
10,306,305,1
11,195,194,1
12,171,170,0
13,6,6,0
14,555,553,0
15,810,810,0
16,573,571,1
17,561,561,0
18,579,577,0
19,462,461,0
20,696,696,0
-----

knapPI_15_20_1000_24
n 20
c 2701
z 2709
time 0.00
1,237,237,0
2,567,566,0
3,927,927,0
4,771,771,0
5,978,977,0
6,201,200,1
7,882,881,1
8,756,755,0
9,390,390,0
10,468,466,1
11,999,998,0
12,507,506,1
13,156,154,1
14,345,345,0
15,975,974,0
16,381,379,0
17,438,437,1
18,993,993,0
19,354,354,0
20,57,57,1
-----

knapPI_15_20_1000_25
n 20
c 2396
z 2403
time 0.00
1,90,90,0
2,879,878,0
3,285,284,1
4,228,228,0
5,87,85,0
6,906,905,0
7,846,845,1
8,852,851,0
9,90,90,0
10,627,626,1
11,804,803,0
12,843,843,0
13,951,951,0
14,138,138,0
15,141,139,1
16,189,188,1
17,315,314,1
18,411,410,0
19,246,246,0
20,771,769,0
-----

knapPI_15_20_1000_26
n 20
c 3164
z 3174
time 0.00
1,942,942,0
2,192,191,1
3,288,288,1
4,36,36,0
5,843,842,0
6,963,961,0
7,810,810,0
8,597,596,0
9,792,791,1
10,789,787,1
11,609,607,0
12,531,531,0
13,747,747,0
14,282,282,0
15,951,951,0
16,996,996,0
17,192,190,1
18,828,826,0
19,789,787,1
20,132,130,1
-----

knapPI_15_20_1000_27
n 20
c 2820
z 2832
time 0.00
1,444,443,0
2,855,855,0
3,294,293,1
4,846,845,0
5,951,950,0
6,666,666,0
7,423,422,0
8,342,340,1
9,141,139,1
10,948,947,0
11,414,412,0
12,870,868,1
13,897,896,0
14,75,75,1
15,117,116,1
16,453,453,0
17,69,67,1
18,243,243,1
19,681,679,1
20,843,842,0
-----

knapPI_15_20_1000_28
n 20
c 1887
z 1896
time 0.00
1,297,295,1
2,168,168,0
3,297,297,0
4,303,301,1
5,60,59,1
6,372,370,1
7,387,387,0
8,438,437,1
9,840,840,0
10,108,108,0
11,216,216,0
12,204,204,0
13,693,692,0
14,219,219,0
15,282,280,0
16,261,261,0
17,591,591,0
18,660,659,0
19,222,220,1
20,204,203,1
-----

knapPI_15_20_1000_29
n 20
c 2146
z 2160
time 0.00
1,150,148,1
2,834,832,0
3,654,654,0
4,111,110,1
5,816,815,1
6,75,75,0
7,351,351,0
8,183,181,1
9,540,540,0
10,270,268,0
11,375,373,0
12,543,541,1
13,843,841,0
14,12,12,0
15,93,93,1
16,72,70,1
17,468,468,0
18,78,76,1
19,114,112,1
20,915,915,0
-----

knapPI_15_20_1000_30
n 20
c 2994
z 3006
time 0.00
1,648,648,0
2,147,145,1
3,660,658,1
4,918,918,0
5,924,924,0
6,780,779,0
7,318,316,1
8,279,278,0
9,891,889,1
10,429,429,0
11,177,177,0
12,879,877,0
13,639,637,1
14,156,156,0
15,258,257,0
16,879,878,0
17,345,344,1
18,492,492,0
19,6,5,1
20,276,276,0
-----

knapPI_15_20_1000_31
n 20
c 3498
z 3510
time 0.00
1,501,501,0
2,810,809,0
3,663,663,0
4,375,375,0
5,33,32,1
6,837,836,0
7,282,280,1
8,24,22,1
9,591,589,1
10,591,589,1
11,984,982,0
12,567,566,0
13,435,434,1
14,951,949,0
15,423,422,1
16,687,687,0
17,222,221,1
18,909,909,1
19,546,545,0
20,990,988,0
-----

knapPI_15_20_1000_32
n 20
c 3152
z 3162
time 0.00
1,354,353,0
2,123,122,1
3,669,667,1
4,183,183,0
5,789,789,0
6,540,540,0
7,894,893,0
8,768,767,1
9,291,290,1
10,750,750,0
11,786,786,0
12,903,902,0
13,582,582,0
14,741,741,1
15,234,234,0
16,144,143,1
17,99,97,1
18,327,325,1
19,438,438,0
20,351,349,0
-----

knapPI_15_20_1000_33
n 20
c 4219
z 4230
time 0.00
1,207,206,0
2,786,786,0
3,672,672,0
4,642,640,1
5,897,897,0
6,246,245,1
7,858,857,1
8,864,863,0
9,639,638,0
10,912,910,1
11,591,591,0
12,240,239,1
13,381,379,1
14,888,886,1
15,399,399,0
16,954,952,0
17,975,974,0
18,744,742,0
19,978,978,0
20,63,61,1
-----

knapPI_15_20_1000_34
n 20
c 3423
z 3435
time 0.00
1,708,706,1
2,99,99,0
3,30,28,1
4,450,448,1
5,654,654,0
6,951,949,0
7,822,822,0
8,609,608,0
9,339,339,0
10,423,423,1
11,396,395,0
12,576,575,0
13,177,175,1
14,678,678,0
15,213,211,1
16,762,760,0
17,852,850,1
18,159,158,1
19,873,871,0
20,423,422,1
-----

knapPI_15_20_1000_35
n 20
c 3185
z 3198
time 0.00
1,561,559,1
2,765,763,0
3,33,33,1
4,258,257,1
5,762,762,0
6,6,6,0
7,786,786,0
8,354,352,1
9,39,39,0
10,585,583,0
11,201,200,1
12,912,912,0
13,324,324,1
14,825,823,0
15,378,376,1
16,570,569,0
17,729,727,1
18,225,223,1
19,765,763,0
20,135,134,1
-----

knapPI_15_20_1000_36
n 20
c 2990
z 3006
time 0.00
1,411,411,0
2,78,76,1
3,39,37,1
4,714,713,1
5,873,871,0
6,711,710,0
7,753,751,0
8,450,449,1
9,390,388,1
10,744,744,0
11,6,4,1
12,249,248,1
13,120,120,0
14,615,615,0
15,540,540,0
16,27,25,1
17,252,251,1
18,639,639,0
19,306,304,1
20,495,495,1
-----

knapPI_15_20_1000_37
n 20
c 3556
z 3570
time 0.00
1,912,912,0
2,741,740,1
3,42,42,0
4,522,522,0
5,627,627,0
6,417,415,1
7,717,715,0
8,195,193,0
9,90,88,1
10,906,904,1
11,810,809,0
12,939,937,0
13,270,269,1
14,762,760,1
15,354,353,0
16,834,834,0
17,129,128,1
18,57,56,1
19,198,196,1
20,207,207,0
-----

knapPI_15_20_1000_38
n 20
c 3107
z 3123
time 0.00
1,765,764,0
2,54,53,1
3,48,46,1
4,978,978,0
5,738,736,0
6,120,119,1
7,330,328,1
8,291,290,0
9,438,437,0
10,66,65,1
11,615,613,1
12,273,273,1
13,66,65,1
14,552,552,1
15,519,517,1
16,642,642,0
17,6,4,1
18,474,472,1
19,738,737,0
20,570,568,0
-----

knapPI_15_20_1000_39
n 20
c 4219
z 4233
time 0.00
1,618,617,0
2,717,717,0
3,405,403,1
4,789,787,0
5,492,492,1
6,825,824,0
7,294,292,1
8,36,34,1
9,138,137,1
10,225,225,0
11,771,770,0
12,612,610,1
13,864,862,0
14,345,345,0
15,684,682,0
16,453,451,1
17,882,881,0
18,891,889,1
19,630,629,1
20,282,280,1
-----

knapPI_15_20_1000_40
n 20
c 3915
z 3927
time 0.00
1,117,117,0
2,30,30,0
3,408,407,1
4,597,595,1
5,603,601,1
6,882,880,0
7,258,257,1
8,780,779,0
9,840,838,1
10,387,386,0
11,576,574,0
12,948,946,0
13,12,10,1
14,489,489,0
15,495,494,0
16,261,259,1
17,759,757,0
18,306,305,1
19,522,522,0
20,642,641,1
-----

knapPI_15_20_1000_41
n 20
c 3976
z 3990
time 0.00
1,972,970,1
2,342,342,0
3,414,412,1
4,54,52,1
5,711,709,0
6,585,585,0
7,222,221,1
8,876,875,1
9,186,186,0
10,546,546,0
11,381,379,1
12,285,283,1
13,807,807,0
14,282,282,0
15,660,659,0
16,717,716,0
17,636,634,0
18,723,722,1
19,63,62,1
20,354,353,0
-----

knapPI_15_20_1000_42
n 20
c 4618
z 4629
time 0.00
1,822,822,0
2,9,7,1
3,417,416,1
4,861,860,0
5,468,466,1
6,291,289,1
7,186,186,0
8,621,620,1
9,888,887,1
10,708,707,0
11,183,183,0
12,972,971,1
13,603,603,0
14,426,426,0
15,825,823,1
16,525,524,0
17,510,510,0
18,138,138,1
19,957,955,0
20,714,714,0
-----

knapPI_15_20_1000_43
n 20
c 4989
z 5001
time 0.00
1,675,675,0
2,321,319,1
3,774,773,1
4,669,669,1
5,576,574,1
6,996,994,1
7,798,798,0
8,366,364,1
9,588,587,0
10,867,867,0
11,990,988,1
12,309,308,1
13,753,752,0
14,219,219,0
15,636,636,0
16,333,333,0
17,387,387,0
18,555,555,0
19,495,495,0
20,426,426,0
-----

knapPI_15_20_1000_44
n 20
c 4652
z 4668
time 0.00
1,177,175,1
2,984,984,0
3,777,777,0
4,126,125,1
5,684,683,1
6,51,50,1
7,765,763,1
8,462,461,1
9,936,936,0
10,30,28,1
11,792,792,0
12,645,644,1
13,549,548,1
14,363,363,0
15,801,800,0
16,141,141,0
17,264,263,0
18,972,971,0
19,390,388,1
20,789,787,1
-----

knapPI_15_20_1000_45
n 20
c 5030
z 5049
time 0.00
1,30,28,1
2,297,296,1
3,783,782,0
4,936,934,1
5,441,439,0
6,756,755,0
7,729,727,1
8,207,205,1
9,636,636,0
10,189,188,1
11,597,597,0
12,981,981,0
13,699,697,1
14,156,156,0
15,966,965,0
16,951,950,0
17,789,788,1
18,390,388,1
19,282,280,1
20,501,499,1
-----

knapPI_15_20_1000_46
n 20
c 5554
z 5568
time 0.01
1,882,880,0
2,963,961,1
3,786,786,0
4,390,390,0
5,549,548,0
6,459,459,0
7,693,692,0
8,303,302,1
9,339,337,1
10,351,349,1
11,402,401,0
12,318,317,1
13,495,493,1
14,948,948,1
15,777,777,1
16,408,406,1
17,666,664,1
18,804,804,0
19,822,821,0
20,861,860,0
-----

knapPI_15_20_1000_47
n 20
c 3934
z 3948
time 0.00
1,381,381,0
2,273,273,0
3,792,791,1
4,201,199,1
5,306,304,1
6,165,164,1
7,657,656,0
8,48,46,1
9,687,685,0
10,510,509,1
11,207,206,0
12,654,654,1
13,291,290,1
14,93,93,0
15,942,942,0
16,216,215,1
17,543,541,1
18,222,221,1
19,714,713,0
20,573,572,0
-----

knapPI_15_20_1000_48
n 20
c 4474
z 4488
time 0.00
1,234,233,1
2,939,938,0
3,147,147,0
4,9,7,1
5,414,413,0
6,870,868,0
7,270,269,1
8,792,791,1
9,387,386,1
10,672,670,1
11,12,10,1
12,342,342,0
13,438,438,1
14,885,885,0
15,756,754,1
16,24,23,1
17,417,417,0
18,639,637,1
19,255,254,1
20,933,933,0
-----

knapPI_15_20_1000_49
n 20
c 4406
z 4419
time 0.00
1,87,86,1
2,252,250,1
3,153,152,1
4,465,464,0
5,522,521,0
6,927,925,1
7,234,233,1
8,888,887,1
9,735,734,0
10,831,830,0
11,168,167,1
12,681,679,1
13,237,235,1
14,30,30,0
15,921,919,0
16,834,832,0
17,294,294,0
18,54,54,0
19,147,146,1
20,645,645,1
-----

knapPI_15_20_1000_50
n 20
c 4623
z 4635
time 0.00
1,588,586,1
2,915,915,0
3,156,156,0
4,273,272,1
5,279,278,1
6,630,629,0
7,198,198,0
8,633,632,1
9,435,435,0
10,993,991,1
11,972,971,1
12,15,15,0
13,384,383,0
14,822,822,0
15,84,83,1
16,642,640,1
17,171,170,1
18,471,470,0
19,687,687,0
20,6,6,0
-----

knapPI_15_20_1000_51
n 20
c 4192
z 4209
time 0.00
1,441,439,1
2,228,227,1
3,162,161,1
4,81,81,0
5,387,386,0
6,336,334,1
7,162,162,1
8,378,376,1
9,135,135,0
10,504,503,1
11,777,776,1
12,354,352,1
13,180,180,0
14,969,967,0
15,897,896,0
16,99,97,1
17,48,47,1
18,888,887,0
19,579,579,0
20,720,718,1
-----

knapPI_15_20_1000_52
n 20
c 5283
z 5301
time 0.00
1,291,291,0
2,894,892,1
3,519,517,1
4,537,537,0
5,495,495,0
6,39,38,1
7,129,127,1
8,474,473,1
9,486,484,1
10,666,664,1
11,582,580,1
12,690,688,0
13,978,976,1
14,759,759,0
15,60,60,1
16,906,905,0
17,924,923,0
18,303,303,0
19,474,472,1
20,81,79,0
-----

knapPI_15_20_1000_53
n 20
c 4472
z 4485
time 0.00
1,144,144,0
2,204,204,0
3,522,522,0
4,348,346,1
5,252,251,1
6,744,743,1
7,741,739,1
8,219,217,1
9,186,184,1
10,825,824,1
11,387,385,0
12,378,377,0
13,126,125,0
14,552,552,0
15,225,225,0
16,714,714,0
17,801,800,1
18,369,368,1
19,12,12,0
20,792,791,0
-----

knapPI_15_20_1000_54
n 20
c 6485
z 6501
time 0.00
1,645,644,0
2,870,869,1
3,528,526,1
4,804,802,1
5,360,360,0
6,801,799,1
7,705,704,1
8,315,314,1
9,885,885,0
10,987,985,1
11,189,189,1
12,714,713,0
13,921,921,0
14,696,696,0
15,39,37,1
16,522,522,0
17,324,324,1
18,786,784,1
19,906,905,0
20,153,152,1
-----

knapPI_15_20_1000_55
n 20
c 4377
z 4395
time 0.00
1,498,497,1
2,183,181,1
3,531,531,0
4,612,611,0
5,117,116,1
6,504,504,0
7,669,668,1
8,60,58,1
9,234,233,0
10,147,145,1
11,996,994,1
12,51,50,1
13,720,718,0
14,489,489,1
15,204,202,1
16,333,331,1
17,201,201,1
18,201,201,0
19,447,445,1
20,864,864,0
-----

knapPI_15_20_1000_56
n 20
c 5544
z 5559
time 0.00
1,351,349,1
2,495,494,1
3,537,535,1
4,420,419,0
5,225,225,0
6,210,208,1
7,633,633,1
8,804,803,1
9,936,934,1
10,306,306,0
11,798,798,0
12,387,386,1
13,867,866,0
14,633,633,0
15,366,366,0
16,789,787,1
17,78,77,1
18,618,617,0
19,339,338,1
20,225,225,0
-----

knapPI_15_20_1000_57
n 20
c 6751
z 6768
time 0.00
1,852,850,1
2,159,158,1
3,894,892,1
4,876,876,1
5,333,333,0
6,915,913,0
7,597,597,0
8,900,899,1
9,636,634,1
10,468,466,1
11,603,603,0
12,723,723,0
13,663,663,0
14,426,426,0
15,180,179,1
16,597,596,1
17,954,954,0
18,36,34,1
19,231,230,1
20,939,937,1
-----

knapPI_15_20_1000_58
n 20
c 6442
z 6453
time 0.00
1,702,702,0
2,471,471,0
3,897,896,1
4,684,684,0
5,90,90,0
6,969,969,1
7,210,210,1
8,645,644,1
9,984,983,0
10,627,627,0
11,408,407,1
12,60,59,1
13,813,811,1
14,570,570,1
15,345,343,1
16,405,404,1
17,831,830,1
18,450,450,0
19,771,771,0
20,300,298,1
-----

knapPI_15_20_1000_59
n 20
c 5981
z 5994
time 0.00
1,555,555,0
2,135,135,0
3,903,901,1
4,495,493,1
5,198,198,0
6,675,674,1
7,174,174,0
8,741,740,0
9,684,683,1
10,789,787,1
11,564,564,0
12,750,748,1
13,609,608,1
14,363,363,0
15,156,156,1
16,213,213,1
17,708,707,1
18,867,867,0
19,663,663,0
20,12,10,1
-----

knapPI_15_20_1000_60
n 20
c 5431
z 5445
time 0.00
1,408,407,1
2,450,448,1
3,906,905,0
4,951,949,1
5,309,307,1
6,378,378,0
7,141,139,1
8,486,485,1
9,384,384,1
10,948,948,0
11,369,368,0
12,84,84,1
13,405,404,0
14,507,507,0
15,321,320,1
16,669,669,1
17,585,583,1
18,285,283,1
19,204,204,0
20,372,371,1
-----

knapPI_15_20_1000_61
n 20
c 4683
z 4701
time 0.01
1,909,908,0
2,114,112,1
3,912,910,1
4,759,758,0
5,63,63,1
6,84,83,1
7,105,103,1
8,231,229,1
9,732,732,0
10,108,108,0
11,174,173,1
12,423,421,1
13,555,553,1
14,300,300,1
15,486,485,0
16,480,478,1
17,462,460,1
18,702,700,1
19,96,96,1
20,84,83,0
-----

knapPI_15_20_1000_62
n 20
c 5531
z 5550
time 0.00
1,762,760,1
2,426,425,0
3,267,266,1
4,216,214,1
5,174,172,1
6,789,787,0
7,69,68,1
8,327,326,1
9,435,433,1
10,270,269,1
11,978,977,1
12,759,757,1
13,351,349,1
14,93,92,1
15,297,297,0
16,288,286,1
17,984,984,0
18,117,116,1
19,990,989,0
20,444,444,1
-----

knapPI_15_20_1000_63
n 20
c 5378
z 5397
time 0.00
1,615,613,1
2,90,89,1
3,273,271,1
4,24,23,1
5,930,928,1
6,846,844,1
7,681,680,1
8,72,70,1
9,783,781,0
10,429,429,0
11,783,782,0
12,96,94,1
13,147,146,1
14,237,237,0
15,462,462,1
16,96,95,1
17,861,861,0
18,534,533,1
19,531,529,1
20,156,156,0
-----

knapPI_15_20_1000_64
n 20
c 6706
z 6723
time 0.00
1,114,113,1
2,402,402,1
3,276,275,1
4,831,831,0
5,39,37,1
6,549,548,1
7,645,645,0
8,816,815,1
9,483,482,1
10,591,590,1
11,588,586,1
12,783,782,0
13,294,294,0
14,30,29,1
15,627,626,1
16,903,903,0
17,738,737,1
18,951,949,1
19,423,422,0
20,519,517,1
-----

knapPI_15_20_1000_65
n 20
c 5274
z 5292
time 0.00
1,966,966,1
2,66,66,0
3,282,280,1
4,288,288,1
5,147,145,1
6,255,253,1
7,609,609,0
8,912,911,1
9,183,182,1
10,750,750,0
11,393,391,1
12,120,119,1
13,93,91,1
14,174,174,0
15,441,439,1
16,360,360,0
17,615,614,1
18,366,366,1
19,963,962,0
20,231,229,1
-----

knapPI_15_20_1000_66
n 20
c 7712
z 7725
time 0.00
1,819,818,1
2,381,379,1
3,636,636,1
4,96,96,1
5,903,902,1
6,957,957,0
7,576,574,1
8,657,656,1
9,531,531,0
10,912,911,1
11,195,195,1
12,456,455,1
13,240,239,1
14,966,966,0
15,603,603,1
16,168,168,1
17,492,490,1
18,783,782,0
19,855,855,0
20,591,590,1
-----

knapPI_15_20_1000_67
n 20
c 5852
z 5871
time 0.00
1,321,319,1
2,45,43,1
3,642,641,1
4,906,905,1
5,12,10,1
6,15,14,1
7,540,538,1
8,753,752,0
9,231,231,0
10,72,71,1
11,1002,1000,1
12,792,792,0
13,36,36,0
14,111,111,0
15,768,768,1
16,978,977,1
17,369,367,1
18,201,199,1
19,747,747,0
20,303,302,0
-----

knapPI_15_20_1000_68
n 20
c 7184
z 7200
time 0.00
1,171,171,1
2,357,356,1
3,645,645,0
4,363,361,1
5,768,767,1
6,720,718,1
7,153,151,1
8,498,497,1
9,933,932,1
10,234,232,0
11,804,804,0
12,129,128,1
13,834,832,1
14,903,903,0
15,582,580,1
16,786,785,1
17,243,243,1
18,615,615,0
19,288,288,0
20,663,663,1
-----

knapPI_15_20_1000_69
n 20
c 6380
z 6393
time 0.00
1,24,24,0
2,669,668,1
3,651,650,1
4,171,170,1
5,876,875,1
6,423,423,1
7,117,115,1
8,243,241,1
9,282,280,1
10,744,744,0
11,963,961,1
12,465,465,0
13,981,981,0
14,696,696,1
15,747,745,0
16,594,594,1
17,120,120,1
18,33,32,1
19,180,180,1
20,375,375,1
-----

knapPI_15_20_1000_70
n 20
c 8036
z 8046
time 0.00
1,876,876,1
2,333,333,0
3,654,654,0
4,627,626,1
5,984,984,1
6,129,127,1
7,81,80,1
8,339,338,1
9,981,981,1
10,906,905,1
11,765,765,1
12,153,153,1
13,777,777,1
14,840,840,0
15,558,557,1
16,51,50,1
17,996,996,0
18,96,96,1
19,723,721,1
20,738,736,0
-----

knapPI_15_20_1000_71
n 20
c 7175
z 7191
time 0.00
1,378,377,1
2,645,645,0
3,12,11,1
4,435,435,1
5,741,740,0
6,834,832,1
7,45,44,1
8,84,82,1
9,681,681,1
10,66,65,1
11,570,570,1
12,492,490,1
13,927,926,0
14,633,633,1
15,723,722,0
16,861,859,1
17,522,521,1
18,513,513,1
19,615,613,1
20,450,448,1
-----

knapPI_15_20_1000_72
n 20
c 7498
z 7515
time 0.00
1,231,229,1
2,312,310,1
3,15,15,1
4,243,243,0
5,849,849,0
6,888,888,0
7,9,9,0
8,828,827,1
9,30,30,0
10,228,226,0
11,375,374,1
12,828,826,1
13,723,722,1
14,777,777,0
15,888,886,1
16,669,667,1
17,399,397,1
18,930,929,1
19,507,506,1
20,810,809,1
-----

knapPI_15_20_1000_73
n 20
c 6813
z 6831
time 0.00
1,84,82,1
2,624,622,1
3,21,20,1
4,702,700,1
5,957,957,0
6,594,593,1
7,621,621,0
8,924,923,1
9,732,730,1
10,387,386,1
11,180,179,1
12,165,163,1
13,519,519,0
14,570,570,1
15,699,699,1
16,477,476,1
17,276,274,1
18,348,346,1
19,48,46,1
20,522,521,0
-----

knapPI_15_20_1000_74
n 20
c 8085
z 8100
time 0.00
1,582,582,0
2,288,287,1
3,24,24,1
4,510,508,1
5,714,714,1
6,297,297,0
7,588,586,1
8,669,668,1
9,81,79,1
10,549,547,1
11,984,983,0
12,501,499,1
13,669,667,1
14,714,714,1
15,864,863,1
16,285,284,1
17,150,150,0
18,762,762,1
19,939,939,0
20,882,882,1
-----

knapPI_15_20_1000_75
n 20
c 7163
z 7176
time 0.00
1,435,435,1
2,600,599,1
3,30,29,1
4,966,965,0
5,822,822,1
6,3,2,1
7,552,550,1
8,765,764,1
9,780,779,0
10,708,707,1
11,789,788,1
12,189,188,1
13,465,464,1
14,507,507,1
15,30,28,1
16,741,741,0
17,27,27,1
18,180,179,1
19,480,479,1
20,594,594,1
-----

knapPI_15_20_1000_76
n 20
c 7981
z 7998
time 0.00
1,288,287,0
2,264,264,1
3,387,385,1
4,774,773,1
5,579,579,0
6,60,58,1
7,516,515,1
8,510,509,1
9,480,480,1
10,870,868,1
11,594,592,1
12,525,524,1
13,261,260,1
14,300,299,1
15,840,840,0
16,549,549,0
17,903,903,1
18,597,595,1
19,372,372,0
20,957,955,1
-----

knapPI_15_20_1000_77
n 20
c 6802
z 6819
time 0.00
1,141,140,1
2,576,576,0
3,390,390,1
4,582,582,0
5,687,687,0
6,765,763,1
7,480,479,1
8,255,253,1
9,828,828,1
10,30,28,1
11,399,397,1
12,861,861,1
13,411,409,1
14,444,444,1
15,6,5,1
16,360,358,1
17,780,780,1
18,12,12,0
19,264,264,0
20,669,667,1
-----

knapPI_15_20_1000_78
n 20
c 5272
z 5295
time 0.00
1,642,640,1
2,243,241,1
3,396,394,1
4,39,38,1
5,798,796,0
6,468,467,0
7,93,92,0
8,351,350,1
9,531,529,1
10,189,189,1
11,201,201,0
12,198,197,1
13,207,205,1
14,237,236,1
15,171,169,1
16,168,166,1
17,657,656,1
18,429,428,1
19,807,805,1
20,30,28,1
-----

knapPI_15_20_1000_79
n 20
c 7658
z 7680
time 0.00
1,495,493,1
2,555,553,1
3,399,399,0
4,849,847,0
5,552,552,1
6,174,172,1
7,57,56,1
8,96,94,1
9,231,229,1
10,351,349,1
11,360,358,1
12,534,534,0
13,354,354,0
14,381,381,1
15,984,982,1
16,975,975,1
17,183,181,1
18,846,845,1
19,699,697,1
20,741,740,1
-----

knapPI_15_20_1000_80
n 20
c 6373
z 6384
time 0.00
1,345,345,1
2,219,218,1
3,756,755,1
4,657,655,0
5,663,661,1
6,876,876,1
7,21,21,1
8,840,839,1
9,579,578,1
10,510,510,1
11,162,162,1
12,870,870,0
13,150,150,0
14,174,173,1
15,147,146,1
16,432,431,1
17,57,57,1
18,261,261,1
19,240,238,1
20,102,101,1
-----

knapPI_15_20_1000_81
n 20
c 10197
z 10218
time 0.00
1,846,846,1
2,531,530,0
3,762,760,1
4,114,112,1
5,771,769,1
6,933,933,1
7,987,985,1
8,936,935,0
9,279,278,1
10,672,670,1
11,969,967,1
12,561,559,1
13,948,947,1
14,318,318,1
15,312,311,1
16,240,240,0
17,936,934,1
18,678,678,1
19,132,130,1
20,813,813,0
-----

knapPI_15_20_1000_82
n 20
c 8381
z 8397
time 0.00
1,699,698,1
2,195,195,1
3,765,764,1
4,921,920,1
5,528,526,1
6,639,637,1
7,951,950,0
8,681,680,1
9,981,979,1
10,831,831,1
11,771,771,0
12,897,895,1
13,96,95,1
14,111,110,1
15,123,123,1
16,48,48,0
17,810,810,1
18,96,94,1
19,24,23,1
20,174,174,0
-----

knapPI_15_20_1000_83
n 20
c 9761
z 9777
time 0.00
1,552,551,0
2,507,507,1
3,771,769,1
4,378,377,0
5,636,634,1
6,342,342,1
7,564,562,1
8,777,776,1
9,327,327,0
10,993,991,1
11,576,576,0
12,234,232,1
13,894,892,1
14,903,903,1
15,288,288,0
16,858,857,1
17,687,687,1
18,513,511,1
19,564,563,1
20,534,534,1
-----

knapPI_15_20_1000_84
n 20
c 6765
z 6786
time 0.00
1,51,51,1
2,822,820,1
3,774,773,1
4,186,185,0
5,393,391,1
6,48,46,1
7,528,527,1
8,522,521,0
9,30,28,1
10,153,152,1
11,381,380,1
12,570,568,1
13,690,688,1
14,48,47,1
15,102,100,1
16,666,665,0
17,564,563,1
18,927,927,1
19,456,456,1
20,249,247,1
-----

knapPI_15_20_1000_85
n 20
c 8795
z 8817
time 0.00
1,906,904,1
2,486,484,1
3,132,130,1
4,996,994,1
5,501,499,1
6,105,103,1
7,492,491,1
8,267,265,1
9,729,728,1
10,312,312,0
11,186,185,1
12,906,905,0
13,837,837,1
14,840,840,1
15,267,265,1
16,123,122,1
17,441,440,0
18,345,344,1
19,996,996,1
20,609,607,1
-----

knapPI_15_20_1000_86
n 20
c 10315
z 10326
time 0.00
1,756,756,1
2,798,797,1
3,135,134,1
4,450,450,1
5,609,608,1
6,807,807,0
7,456,456,1
8,363,362,0
9,78,77,1
10,825,825,1
11,990,989,1
12,594,593,1
13,633,633,0
14,984,984,1
15,429,429,1
16,930,930,1
17,318,316,1
18,762,760,1
19,891,889,1
20,321,320,1
-----

knapPI_15_20_1000_87
n 20
c 9240
z 9258
time 0.00
1,609,609,0
2,462,461,0
3,141,139,1
4,261,259,1
5,366,364,1
6,513,512,1
7,420,420,0
8,108,106,1
9,777,777,1
10,987,985,1
11,795,794,1
12,930,930,1
13,783,782,1
14,777,777,1
15,243,242,1
16,741,739,1
17,195,193,1
18,177,177,1
19,783,781,1
20,681,680,1
-----

knapPI_15_20_1000_88
n 20
c 7213
z 7233
time 0.00
1,111,109,1
2,774,774,1
3,144,143,1
4,69,67,1
5,474,473,1
6,216,216,0
7,387,385,1
8,852,851,0
9,126,126,1
10,147,146,1
11,600,598,1
12,267,266,1
13,579,578,1
14,921,921,1
15,408,406,1
16,549,547,1
17,717,717,1
18,243,241,1
19,324,322,1
20,393,393,1
-----

knapPI_15_20_1000_89
n 20
c 10788
z 10803
time 0.00
1,963,962,1
2,438,438,0
3,501,500,1
4,525,524,1
5,582,581,1
6,921,921,1
7,999,997,1
8,948,947,1
9,828,826,1
10,306,306,0
11,756,755,1
12,603,603,1
13,375,375,1
14,714,714,0
15,573,571,1
16,6,4,1
17,594,594,1
18,660,658,1
19,216,214,1
20,753,753,1
-----

knapPI_15_20_1000_90
n 20
c 10560
z 10578
time 0.00
1,816,814,1
2,753,751,1
3,504,504,1
4,333,332,0
5,339,338,1
6,978,977,1
7,963,962,0
8,693,692,1
9,528,527,1
10,468,467,1
11,561,559,1
12,939,939,1
13,525,523,1
14,507,506,1
15,384,383,1
16,813,812,1
17,471,470,1
18,75,74,1
19,756,755,1
20,468,466,1
-----

knapPI_15_20_1000_91
n 20
c 10645
z 10662
time 0.00
1,315,315,0
2,417,415,1
3,510,509,1
4,789,789,1
5,447,446,1
6,684,682,1
7,927,926,1
8,789,788,1
9,876,875,1
10,627,627,1
11,366,364,0
12,630,628,1
13,321,320,1
14,651,651,1
15,549,548,1
16,621,621,1
17,348,347,1
18,492,491,0
19,648,647,1
20,828,826,1
-----

knapPI_15_20_1000_92
n 20
c 9814
z 9828
time 0.00
1,168,167,1
2,729,728,1
3,513,513,1
4,597,597,1
5,204,203,1
6,387,386,1
7,891,891,1
8,534,533,0
9,576,576,1
10,789,788,1
11,168,168,1
12,966,964,1
13,468,468,1
14,444,443,1
15,714,712,1
16,429,429,0
17,225,223,1
18,909,907,1
19,540,540,1
20,540,539,1
-----

knapPI_15_20_1000_93
n 20
c 7722
z 7740
time 0.00
1,21,20,1
2,393,392,0
3,519,518,1
4,408,406,1
5,312,311,1
6,93,91,1
7,855,855,1
8,279,277,1
9,276,276,0
10,948,948,1
11,975,973,1
12,303,301,1
13,267,265,1
14,588,588,1
15,525,525,1
16,240,238,1
17,102,100,1
18,324,324,1
19,81,80,1
20,900,899,1
-----

knapPI_15_20_1000_94
n 20
c 11439
z 11457
time 0.00
1,522,520,1
2,705,705,1
3,876,874,1
4,864,862,1
5,420,420,1
6,795,795,0
7,468,468,1
8,375,374,1
9,627,625,1
10,111,109,1
11,777,777,1
12,639,637,1
13,63,61,0
14,381,380,1
15,690,689,1
16,696,694,1
17,978,976,1
18,741,740,1
19,975,973,1
20,612,612,1
-----

knapPI_15_20_1000_95
n 20
c 9645
z 9648
time 0.00
1,375,373,1
2,369,369,1
3,879,879,1
4,672,671,1
5,177,176,1
6,852,852,1
7,432,432,1
8,120,118,0
9,327,325,1
10,270,269,1
11,582,582,1
12,975,974,1
13,210,210,1
14,525,525,1
15,504,502,1
16,504,503,0
17,855,853,1
18,159,157,1
19,513,513,1
20,972,972,1
-----

knapPI_15_20_1000_96
n 20
c 8758
z 8772
time 0.00
1,225,225,1
2,684,682,1
3,885,883,1
4,480,479,1
5,285,285,1
6,558,556,1
7,399,397,1
8,864,863,1
9,27,26,0
10,432,430,0
11,387,386,1
12,312,310,1
13,6,6,0
14,318,317,1
15,666,666,1
16,312,311,1
17,729,729,1
18,573,573,1
19,408,406,1
20,687,685,1
-----

knapPI_15_20_1000_97
n 20
c 9099
z 9111
time 0.00
1,78,78,0
2,348,346,1
3,888,888,1
4,936,936,1
5,42,41,1
6,261,261,1
7,363,361,1
8,960,959,1
9,375,374,1
10,591,590,1
11,192,191,1
12,999,999,1
13,804,803,1
14,111,110,1
15,831,831,1
16,120,120,1
17,255,254,0
18,990,990,1
19,300,298,1
20,45,45,0
-----

knapPI_15_20_1000_98
n 20
c 11095
z 11109
time 0.00
1,579,578,1
2,660,659,1
3,894,892,1
4,744,744,1
5,150,150,1
6,966,965,1
7,327,326,1
8,705,704,1
9,75,75,1
10,753,751,1
11,348,347,0
12,336,335,1
13,951,951,1
14,255,254,1
15,645,643,1
16,930,928,1
17,132,130,1
18,408,406,1
19,840,839,1
20,759,758,1
-----

knapPI_15_20_1000_99
n 20
c 9848
z 9870
time 0.00
1,432,431,1
2,972,971,1
3,249,249,1
4,201,201,0
5,258,258,1
6,24,22,1
7,939,938,1
8,801,800,1
9,777,775,1
10,912,911,1
11,153,152,1
12,672,672,1
13,750,748,1
14,48,47,1
15,810,808,1
16,387,385,1
17,9,7,1
18,825,823,1
19,732,731,1
20,120,118,1
-----

knapPI_15_20_1000_100
n 20
c 8917
z 8928
time 0.00
1,285,283,1
2,636,636,1
3,255,253,1
4,9,9,0
5,15,15,0
6,726,726,1
7,903,903,1
8,546,545,1
9,126,124,1
10,72,72,0
11,957,956,1
12,9,8,1
13,897,896,1
14,192,191,1
15,972,972,1
16,195,193,1
17,885,883,1
18,240,239,1
19,273,272,1
20,831,831,1
-----

